Function: get_partitions took 2.8133392333984375e-05 seconds
Function: map_flows_partitions took 6.198883056640625e-06 seconds
Building model with:
2 devices, 3 partitions and 1 flows
Using license file /home/anup/gurobi.lic
Academic license - for non-commercial use only
Function: MIP.add_frac_mem_var took 0.00022792816162109375 seconds
Function: MIP.add_coverage_constraints took 0.00021195411682128906 seconds
Function: MIP.add_accuracy_constraints took 0.0001804828643798828 seconds
Function: MIP.add_capacity_constraints took 0.0002923011779785156 seconds
Changed value of parameter TimeLimit to 120.0
   Prev: inf  Min: 0.0  Max: inf  Default: inf
Changed value of parameter NonConvex to 2
   Prev: -1  Min: -1  Max: 2  Default: -1
--------------------------------------------------
Starting model update
Model update took: 3.24249267578125e-05 s
--------------------------------------------------
Starting model optimize
Gurobi Optimizer version 9.0.0 build v9.0.0rc2 (linux64)
Optimize a model with 19 rows, 29 columns and 50 nonzeros
Model fingerprint: 0xd705e43d
Model has 3 quadratic constraints
Model has 3 general constraints
Variable types: 21 continuous, 8 integer (6 binary)
Coefficient statistics:
  Matrix range     [1e-04, 5e+03]
  QMatrix range    [1e+00, 1e+00]
  QLMatrix range   [1e+00, 1e+00]
  Objective range  [1e+00, 1e+00]
  Bounds range     [1e+00, 3e+04]
  RHS range        [1e+00, 2e+01]

---------------------------------------------------------------------------
Multi-objectives: starting optimization with 2 objectives ... 
---------------------------------------------------------------------------

Multi-objectives: applying initial presolve ...
---------------------------------------------------------------------------

Presolve removed 6 rows and 7 columns
Presolve time: 0.00s
Presolved: 25 rows and 23 columns
---------------------------------------------------------------------------

Multi-objectives: optimize objective 1 (ns) ...
---------------------------------------------------------------------------

Presolve removed 8 rows and 8 columns
Presolve time: 0.00s
Presolved: 29 rows, 16 columns, 71 nonzeros
Presolved model has 1 SOS constraint(s)
Presolved model has 3 bilinear constraint(s)
Variable types: 9 continuous, 7 integer (3 binary)

Root relaxation: objective 1.020408e+01, 9 iterations, 0.00 seconds

    Nodes    |    Current Node    |     Objective Bounds      |     Work
 Expl Unexpl |  Obj  Depth IntInf | Incumbent    BestBd   Gap | It/Node Time

     0     0   10.20408    0    1          -   10.20408      -     -    0s
     0     0   10.26388    0    4          -   10.26388      -     -    0s
     0     0   11.14823    0    4          -   11.14823      -     -    0s
     0     0   11.40951    0    2          -   11.40951      -     -    0s
     0     0   11.40951    0    2          -   11.40951      -     -    0s
     0     2   11.40951    0    2          -   11.40951      -     -    0s
*    2     2               1      12.5000000   12.50000  0.00%   3.5    0s

Cutting planes:
  MIR: 3
  RLT: 1

Explored 3 nodes (22 simplex iterations) in 0.01 seconds
Thread count was 8 (of 8 available processors)

Solution count 1: 12.5 

Optimal solution found (tolerance 1.00e-04)
Best objective 1.250000000000e+01, best bound 1.250000000000e+01, gap 0.0000%
---------------------------------------------------------------------------

Multi-objectives: optimize objective 2 (res) ...
---------------------------------------------------------------------------


Loaded user MIP start with objective 74.2462

Presolve removed 26 rows and 23 columns
Presolve time: 0.00s
Presolve: All rows and columns removed

Explored 0 nodes (0 simplex iterations) in 0.01 seconds
Thread count was 1 (of 8 available processors)

Solution count 1: 74.2462 

Optimal solution found (tolerance 1.00e-04)
Best objective 7.424619007111e+01, best bound 7.424619007111e+01, gap 0.0000%

---------------------------------------------------------------------------
Multi-objectives: solved in 0.01 seconds, solution count 1

Model optimize took: 0.008667707443237305 seconds
--------------------------------------------------

Solution quality statistics for model Netmon :
  Maximum violation:
    Bound       : 0.00000000e+00
    Constraint  : 7.10542736e-15
    Integrality : 0.00000000e+00

Throughput: 80.0 Mpps, ns per packet: 12.5
Resources: 74.24619007110596
Used Cores: 7.0, Total CPUS: 1, Switch Memory: 101.953125

Sketch (0) (cm: eps0: 6.25e-06, del0: 0.05, min_mem: 1698.9296875)
Par: 1, Rows: 3
(1.000,0)    (0.000,1)    
Total frac: 1.000

Sketch (1) (cm: eps0: 0.000625, del0: 0.05, min_mem: 16.9921875)
Par: 1, Rows: 3
(-0.000,0)    (1.000,1)    
Total frac: 1.000

Sketch (2) (cm: eps0: 0.000625, del0: 0.05, min_mem: 16.9921875)
Par: 1, Rows: 3
(1.000,1)    (0.000,0)    
Total frac: 1.000

Device (0) CPU_1:
cores_sketch: 3.0, cores_dpdk: 4.0
Rows total: 3.0
Mem total: 5096.7890625
Throughput: 80.0

Device (1) P4_1:
Rows total: 6.0
Mem total: 101.953125
Throughput: 148.0
--------------------------------------------------
Function: MIP.solve took 0.01564955711364746 seconds
Function: solve took 0.01598954200744629 seconds
